100
100
100
99
98
98
98
98
97
97
96
96
96
94
94
93
92
90
88
87
87
86
86
85
85
85
85
85
84
84
83
83
83
83
80
79
79
78
77
77
76
75
75
74
71
70
69
67
65
64
62
62
62
62
61
61
60
58
57
56
55
55
55
54
54
53
52
51
49
49
47
46
45
44
44
43
43
41
41
40
39
37
34
32
32
31
29
28
28
27
26
26
25
25
24
24
23
23
22
22
21
20
